# Node Net
 40   1
801   1
 20   1
9944   2
6201   2
9501   2
201   3
9992   3
 67   3
501   4
4100   4
4500   4
9959   5
2400   5
1100   5
5600   6
 46   6
 59   6
  7   7
9985   7
2901   7
 81   8
1701   8
8600   8
3201   9
6700   9
5100  10
3700  10
5801  11
2801  11
6900  12
1301  12
 63  13
9800  13
 79  14
 95  14
600  15
9961  15
9960  16
 17  16
9900  17
3200  17
 18  18
 74  18
